(set-logic HORN)


(declare-fun |state| ( Bool Bool Bool Bool (_ BitVec 32) (_ BitVec 32) (_ BitVec 32) (_ BitVec 32) (_ BitVec 32) (_ BitVec 32) (_ BitVec 32) (_ BitVec 32) (_ BitVec 32) (_ BitVec 32) (_ BitVec 32) (_ BitVec 32) (_ BitVec 32) (_ BitVec 32) (_ BitVec 32) (_ BitVec 32) (_ BitVec 32) (_ BitVec 32) (_ BitVec 32) (_ BitVec 32) (_ BitVec 32) (_ BitVec 32) (_ BitVec 32) (_ BitVec 32) (_ BitVec 32) (_ BitVec 32) (_ BitVec 32) (_ BitVec 32) (_ BitVec 32) (_ BitVec 32) (_ BitVec 32) (_ BitVec 32) (_ BitVec 32) (_ BitVec 32) (_ BitVec 32) (_ BitVec 32) (_ BitVec 32) (_ BitVec 32) ) Bool)

(assert
  (forall ( (A (_ BitVec 32)) (B (_ BitVec 32)) (C (_ BitVec 32)) (D (_ BitVec 32)) (E (_ BitVec 32)) (F (_ BitVec 32)) (G (_ BitVec 32)) (H (_ BitVec 32)) (I (_ BitVec 32)) (J (_ BitVec 32)) (K (_ BitVec 32)) (L (_ BitVec 32)) (M (_ BitVec 32)) (N (_ BitVec 32)) (O (_ BitVec 32)) (P (_ BitVec 32)) (Q (_ BitVec 32)) (R (_ BitVec 32)) (S (_ BitVec 32)) (T (_ BitVec 32)) (U (_ BitVec 32)) (V (_ BitVec 32)) (W (_ BitVec 32)) (X (_ BitVec 32)) (Y (_ BitVec 32)) (Z (_ BitVec 32)) (A1 (_ BitVec 32)) (B1 (_ BitVec 32)) (C1 (_ BitVec 32)) (D1 (_ BitVec 32)) (E1 (_ BitVec 32)) (F1 (_ BitVec 32)) (G1 (_ BitVec 32)) (H1 (_ BitVec 32)) (I1 (_ BitVec 32)) (J1 (_ BitVec 32)) (K1 (_ BitVec 32)) (L1 (_ BitVec 32)) (M1 Bool) (N1 Bool) (O1 Bool) (P1 Bool) ) 
    (=>
      (and
        (and (not O1) (not N1) (= M1 true) (not P1))
      )
      (state M1
       P1
       O1
       N1
       P
       R
       S
       U
       V
       W
       X
       Y
       Z
       A1
       B1
       C1
       E1
       F1
       G1
       H1
       I1
       J1
       K1
       L1
       D1
       T
       Q
       O
       N
       M
       L
       K
       J
       I
       H
       G
       F
       E
       D
       C
       B
       A)
    )
  )
)
(assert
  (forall ( (A Bool) (B Bool) (C (_ BitVec 32)) (D (_ BitVec 32)) (E (_ BitVec 32)) (F (_ BitVec 32)) (G (_ BitVec 32)) (H (_ BitVec 32)) (I (_ BitVec 32)) (J (_ BitVec 32)) (K (_ BitVec 32)) (L (_ BitVec 32)) (M (_ BitVec 32)) (N (_ BitVec 32)) (O (_ BitVec 32)) (P (_ BitVec 32)) (Q (_ BitVec 32)) (R (_ BitVec 32)) (S (_ BitVec 32)) (T (_ BitVec 32)) (U (_ BitVec 32)) (V (_ BitVec 32)) (W (_ BitVec 32)) (X (_ BitVec 32)) (Y (_ BitVec 32)) (Z (_ BitVec 32)) (A1 (_ BitVec 32)) (B1 (_ BitVec 32)) (C1 (_ BitVec 32)) (D1 (_ BitVec 32)) (E1 (_ BitVec 32)) (F1 (_ BitVec 32)) (G1 (_ BitVec 32)) (H1 (_ BitVec 32)) (I1 (_ BitVec 32)) (J1 (_ BitVec 32)) (K1 (_ BitVec 32)) (L1 (_ BitVec 32)) (M1 (_ BitVec 32)) (N1 (_ BitVec 32)) (O1 (_ BitVec 32)) (P1 (_ BitVec 32)) (Q1 (_ BitVec 32)) (R1 (_ BitVec 32)) (S1 (_ BitVec 32)) (T1 (_ BitVec 32)) (U1 (_ BitVec 32)) (V1 (_ BitVec 32)) (W1 (_ BitVec 32)) (X1 (_ BitVec 32)) (Y1 (_ BitVec 32)) (Z1 (_ BitVec 32)) (A2 (_ BitVec 32)) (B2 (_ BitVec 32)) (C2 (_ BitVec 32)) (D2 (_ BitVec 32)) (E2 (_ BitVec 32)) (F2 (_ BitVec 32)) (G2 (_ BitVec 32)) (H2 (_ BitVec 32)) (I2 (_ BitVec 32)) (J2 (_ BitVec 32)) (K2 (_ BitVec 32)) (L2 (_ BitVec 32)) (M2 (_ BitVec 32)) (N2 (_ BitVec 32)) (O2 (_ BitVec 32)) (P2 (_ BitVec 32)) (Q2 (_ BitVec 32)) (R2 (_ BitVec 32)) (S2 (_ BitVec 32)) (T2 (_ BitVec 32)) (U2 (_ BitVec 32)) (V2 (_ BitVec 32)) (W2 (_ BitVec 32)) (X2 (_ BitVec 32)) (Y2 (_ BitVec 32)) (Z2 (_ BitVec 32)) (A3 (_ BitVec 32)) (B3 (_ BitVec 32)) (C3 (_ BitVec 32)) (D3 (_ BitVec 32)) (E3 (_ BitVec 32)) (F3 (_ BitVec 32)) (G3 (_ BitVec 32)) (H3 (_ BitVec 32)) (I3 (_ BitVec 32)) (J3 (_ BitVec 32)) (K3 (_ BitVec 32)) (L3 (_ BitVec 32)) (M3 (_ BitVec 32)) (N3 Bool) (O3 Bool) (P3 Bool) (Q3 Bool) (R3 Bool) (S3 Bool) ) 
    (=>
      (and
        (state O3
       S3
       R3
       Q3
       H1
       L1
       N1
       R1
       T1
       V1
       X1
       Z1
       B2
       D2
       F2
       H2
       L2
       N2
       P2
       R2
       T2
       V2
       X2
       Z2
       I2
       O1
       I1
       E1
       C1
       A1
       Y
       W
       U
       S
       Q
       O
       M
       K
       H
       G
       E
       C)
        (let ((a!1 (or (and (= K #x00000000)
                    (= I1 #x00000000)
                    (= K2 C3)
                    (not (= K2 #x00000000)))
               (and (not (= K #x00000001))
                    (not (= K #x00000000))
                    (= I1 #x00000000)
                    (= K2 C3)
                    (not (= K2 #x00000000)))))
      (a!2 (or (and (= M3 #x00000000)
                    (= L3 #x00000000)
                    (= J3 #x00000001)
                    (= I3 #x00000002)
                    (= H3 #x00000002)
                    (= H3 #x00000000)
                    (= J2 #x00000000)
                    (= F1 #x00000000)
                    (= B1 #x00000000)
                    (= P #x00000001)
                    (= L #x00000000)
                    (= J #x00000000)
                    (= I #x00000000)
                    (= F #x00000000))
               (and (= M3 #x00000000)
                    (= L3 #x00000000)
                    (= I3 #x00000002)
                    (= H3 J3)
                    (= H3 #x00000002)
                    (not (= H3 #x00000000))
                    (= J2 #x00000000)
                    (= F1 #x00000000)
                    (= B1 #x00000000)
                    (= P #x00000001)
                    (= L #x00000000)
                    (= J #x00000000)
                    (= I #x00000000)
                    (= F #x00000000))))
      (a!8 (or (and (= O1 #x00000000) (= Q1 #x00000001))
               (and (not (= I1 #x00000000))
                    (not (= O1 #x00000000))
                    (= Q1 #x00000000))
               (and (= I1 #x00000000) (not (= O1 #x00000000)) (= Q1 #x00000001)))))
(let ((a!3 (or (and a!2 (= K3 #x00000001) (= I3 #x00000000))
               (and a!2 (= I3 K3) (not (= I3 #x00000000)))))
      (a!9 (or (and a!8
                    (= I3 C1)
                    (not (= O #x00000000))
                    (= I2 #x00000001)
                    (= S1 Y1)
                    (= S1 #x00000000)
                    (= Q1 Y1))
               (and a!8
                    (= I3 #x00000000)
                    (= O #x00000000)
                    (= I2 #x00000001)
                    (= S1 Y1)
                    (= S1 #x00000000)
                    (= Q1 Y1))))
      (a!24 (or (and a!8
                     (= G #x00000000)
                     (= O1 #x00000000)
                     (= S1 Y1)
                     (not (= S1 #x00000000))
                     (= Q1 Y1)
                     (= K1 G3)
                     (not (= K1 #x00000000)))
                (and a!8
                     (not (= G #x00000001))
                     (not (= G #x00000000))
                     (= O1 #x00000000)
                     (= S1 Y1)
                     (not (= S1 #x00000000))
                     (= Q1 Y1)
                     (= K1 G3)
                     (not (= K1 #x00000000))))))
(let ((a!4 (or (and a!3
                    (= M3 P1)
                    (= Z #x00000000)
                    (= V Z)
                    (= R V)
                    (= R #x00000000))
               (and a!3
                    (= P1 #x00000000)
                    (= Z #x00000000)
                    (= V Z)
                    (= R V)
                    (not (= R #x00000000)))))
      (a!10 (or (and a!9 (= H3 M) (not (= O #x00000001)))
                (and a!9 (= H3 #x00000000) (= O #x00000001)))))
(let ((a!5 (or (and a!4
                    (= L3 J1)
                    (= X #x00000000)
                    (= T X)
                    (= D T)
                    (= D #x00000000))
               (and a!4
                    (= J1 #x00000000)
                    (= X #x00000000)
                    (= T X)
                    (= D T)
                    (not (= D #x00000000)))))
      (a!11 (or (and a!10 (= J2 #x00000000))
                (and a!8
                     (= I3 C1)
                     (= H3 M)
                     (= J2 I2)
                     (not (= I2 #x00000001))
                     (= S1 Y1)
                     (= S1 #x00000000)
                     (= Q1 Y1)))))
(let ((a!6 (or (and a!5 (= J3 #x00000001) (= N #x00000002))
               (and a!5 (= J3 N) (not (= J3 #x00000001)))))
      (a!12 (or (and a!11 (= J3 #x00000001) (= H3 #x00000000))
                (and a!11 (= H3 J3) (not (= H3 #x00000000))))))
(let ((a!7 (or (and a!6 (= K3 D1) (not (= K3 #x00000001)))
               (and a!6 (= K3 #x00000001) (= D1 #x00000002))))
      (a!13 (or (and a!12 (= K3 #x00000001) (= I3 #x00000000))
                (and a!12 (= I3 K3) (not (= I3 #x00000000))))))
(let ((a!14 (or (and a!13 (not (= G #x00000001)))
                (and a!13 (= G #x00000001) (not (= J3 #x00000001))))))
(let ((a!15 (or (and a!14 (= M2 #x00000000))
                (and a!13 (= G #x00000001) (= J3 #x00000001) (= M2 #x00000001)))))
(let ((a!16 (or (and a!15 (= U2 #x00000000) (= Q2 U2) (= M2 Q2) (= P1 O1))
                (and a!15
                     (not (= U2 #x00000000))
                     (= Q2 U2)
                     (= M2 Q2)
                     (= P1 #x00000000)))))
(let ((a!17 (or (and a!16 (not (= K #x00000001)))
                (and a!16 (not (= K3 #x00000001)) (= K #x00000001)))))
(let ((a!18 (or (and a!17 (= O2 #x00000000))
                (and a!16 (= K3 #x00000001) (= K #x00000001) (= O2 #x00000001)))))
(let ((a!19 (or (and a!18 (= O2 S2) (= J1 I1) (= G1 S2) (= G1 #x00000000))
                (and a!18
                     (= O2 S2)
                     (= J1 #x00000000)
                     (= G1 S2)
                     (not (= G1 #x00000000))))))
(let ((a!20 (or (and a!19 (= J3 N) (not (= J3 #x00000001)))
                (and a!19 (= J3 #x00000001) (= N #x00000002)))))
(let ((a!21 (or (and a!20 (= K3 D1) (not (= K3 #x00000001)))
                (and a!20 (= K3 #x00000001) (= D1 #x00000002)))))
(let ((a!22 (or (and a!21 (= U1 #x00000001) (= P1 #x00000000))
                (and a!21
                     (= U1 #x00000001)
                     (not (= P1 #x00000000))
                     (= J1 #x00000000))
                (and a!21
                     (= U1 #x00000000)
                     (not (= P1 #x00000000))
                     (not (= J1 #x00000000))))))
(let ((a!23 (or (and a!22
                     (= E2 #x00000000)
                     (= C2 E2)
                     (= U1 C2)
                     (= M1 #x00000001))
                (and a!22
                     (not (= E2 #x00000000))
                     (= C2 E2)
                     (= U1 C2)
                     (= M1 #x00000000)))))
  (or (and (not P3)
           N3
           B
           O3
           (not A)
           (not Q3)
           (not R3)
           S3
           (= H1 G1)
           (= L1 K1)
           (= N1 M1)
           (= R1 Q1)
           (= J2 I2)
           (= T1 S1)
           (= V1 U1)
           (= X1 W1)
           (= Z1 Y1)
           (= B2 A2)
           (= D2 C2)
           (= F2 E2)
           (= H2 G2)
           (= L2 K2)
           (= P1 O1)
           (= N2 M2)
           (= P2 O2)
           (= R2 Q2)
           (= J1 I1)
           (= T2 S2)
           (= V2 U2)
           (= F1 E1)
           (= X2 W2)
           (= D1 C1)
           (= Z2 Y2)
           (= B1 A1)
           (= Z Y)
           (= X W)
           (= V U)
           (= T S)
           (= R Q)
           (= P O)
           (= N M)
           (= L K)
           (= J H)
           (= I G)
           (= F E)
           (= D C))
      (and (not P3)
           (not N3)
           B
           (not O3)
           A
           Q3
           R3
           (not S3)
           (= H1 G1)
           (= L1 K1)
           (= N1 M1)
           (= R1 Q1)
           (= J2 #x00000001)
           (= T1 S1)
           (= V1 U1)
           (= X1 W1)
           (= Z1 Y1)
           (= B2 A2)
           (= D2 C2)
           (= F2 E2)
           (= H2 G2)
           (= L2 K2)
           (= P1 O1)
           (= N2 M2)
           (= P2 O2)
           (= R2 Q2)
           (= J1 I1)
           (= T2 S2)
           (= V2 U2)
           (= F1 F)
           (= X2 W2)
           (= D1 C1)
           (= Z2 Y2)
           (= B1 (bvadd #x00000001 A1))
           (= Z Y)
           (= X W)
           (= V U)
           (= T S)
           (= R Q)
           (= P #x00000000)
           (= N M)
           (= L K)
           (= J H)
           (= I G)
           (= F D3)
           (= D C))
      (and P3
           (not N3)
           B
           O3
           A
           Q3
           (not R3)
           (not S3)
           (= O #x00000000)
           (= H1 G1)
           (= L1 K1)
           (= N1 M1)
           (= R1 Q1)
           (= J2 I2)
           (= T1 S1)
           (= V1 U1)
           (= X1 W1)
           (= Z1 Y1)
           (= B2 A2)
           (= D2 C2)
           (= F2 E2)
           (= H2 G2)
           (= L2 K2)
           (= P1 #x00000002)
           (= N2 M2)
           (= P2 O2)
           (= R2 Q2)
           (= J1 I1)
           (= T2 S2)
           (= V2 U2)
           (= F1 E1)
           (= X2 W2)
           (= D1 C1)
           (= Z2 Y2)
           (= B1 A1)
           (= Z Y)
           (= X W)
           (= V U)
           (= T S)
           (= R Q)
           (= P O)
           (= N M)
           (= L K)
           (= J H)
           (= I #x00000001)
           (= F E)
           (= D C))
      (and (not P3)
           N3
           (not B)
           O3
           A
           Q3
           (not R3)
           (not S3)
           (not (= O #x00000000))
           (= H1 G1)
           (= L1 K1)
           (= N1 M1)
           (= R1 Q1)
           (= J2 I2)
           (= T1 S1)
           (= V1 U1)
           (= X1 W1)
           (= Z1 Y1)
           (= B2 A2)
           (= D2 C2)
           (= F2 E2)
           (= H2 G2)
           (= L2 K2)
           (= P1 O1)
           (= N2 M2)
           (= P2 O2)
           (= R2 Q2)
           (= J1 I1)
           (= T2 S2)
           (= V2 U2)
           (= F1 E1)
           (= X2 W2)
           (= D1 C1)
           (= Z2 Y2)
           (= B1 A1)
           (= Z Y)
           (= X W)
           (= V U)
           (= T S)
           (= R Q)
           (= P O)
           (= N M)
           (= L K)
           (= J H)
           (= I G)
           (= F E)
           (= D C))
      (and (not P3)
           N3
           B
           O3
           A
           Q3
           (not R3)
           S3
           (= H1 G1)
           (= L1 K1)
           (= N1 M1)
           (= R1 Q1)
           (= J2 I2)
           (= T1 S1)
           (= V1 U1)
           (= X1 W1)
           (= Z1 Y1)
           (= B2 A2)
           (= D2 C2)
           (= F2 E2)
           (= H2 G2)
           (= L2 K2)
           (= P1 O1)
           (= N2 M2)
           (= P2 O2)
           (= R2 Q2)
           (= J1 I1)
           (= T2 S2)
           (= V2 U2)
           (= F1 E1)
           (= X2 W2)
           (= D1 C1)
           (= Z2 Y2)
           (= B1 A1)
           (= Z Y)
           (= X W)
           (= V U)
           (= T S)
           (= R Q)
           (= P O)
           (= N M)
           (= L K)
           (= J H)
           (= I G)
           (= F E)
           (= D C))
      (and (not P3)
           (not N3)
           (not B)
           O3
           (not A)
           Q3
           R3
           (not S3)
           a!1
           (= H1 G1)
           (= L1 K1)
           (= N1 M1)
           (= R1 Q1)
           (= J2 I2)
           (= T1 S1)
           (= V1 U1)
           (= X1 W1)
           (= Z1 Y1)
           (= B2 A2)
           (= D2 C2)
           (= F2 E2)
           (= H2 G2)
           (= P1 O1)
           (= N2 M2)
           (= P2 O2)
           (= R2 Q2)
           (= J1 I1)
           (= T2 S2)
           (= V2 U2)
           (= F1 E1)
           (= X2 W2)
           (= D1 C1)
           (= Z2 Y2)
           (= B1 A1)
           (= Z Y)
           (= X W)
           (= V U)
           (= T S)
           (= R Q)
           (= P O)
           (= N M)
           (= L K)
           (= J H)
           (= I G)
           (= F E)
           (= D C))
      (and P3
           (not N3)
           (not B)
           O3
           (not A)
           Q3
           R3
           (not S3)
           (= H1 G1)
           (= I1 #x00000000)
           (= L1 K1)
           (= N1 M1)
           (= K2 B3)
           (= K2 #x00000000)
           (= R1 Q1)
           (= J2 I2)
           (= T1 S1)
           (= V1 U1)
           (= X1 W1)
           (= Z1 Y1)
           (= B2 A2)
           (= D2 C2)
           (= F2 E2)
           (= H2 G2)
           (= P1 O1)
           (= N2 M2)
           (= P2 O2)
           (= R2 Q2)
           (= J1 I1)
           (= T2 S2)
           (= V2 U2)
           (= F1 E1)
           (= X2 W2)
           (= D1 C1)
           (= Z2 Y2)
           (= B1 A1)
           (= Z Y)
           (= X W)
           (= V U)
           (= T S)
           (= R Q)
           (= P O)
           (= N M)
           (= L K)
           (= J H)
           (= I G)
           (= F E)
           (= D C))
      (and (not P3)
           N3
           (not B)
           O3
           (not A)
           Q3
           R3
           (not S3)
           (= H1 G1)
           (not (= I1 #x00000000))
           (= L1 K1)
           (= N1 M1)
           (= R1 Q1)
           (= J2 I2)
           (= T1 S1)
           (= V1 U1)
           (= X1 W1)
           (= Z1 Y1)
           (= B2 A2)
           (= D2 C2)
           (= F2 E2)
           (= H2 G2)
           (= L2 K2)
           (= P1 O1)
           (= N2 M2)
           (= P2 O2)
           (= R2 Q2)
           (= J1 I1)
           (= T2 S2)
           (= V2 U2)
           (= F1 E1)
           (= X2 W2)
           (= D1 C1)
           (= Z2 Y2)
           (= B1 A1)
           (= Z Y)
           (= X W)
           (= V U)
           (= T S)
           (= R Q)
           (= P O)
           (= N M)
           (= L K)
           (= J H)
           (= I G)
           (= F E)
           (= D C))
      (and P3
           N3
           (not B)
           O3
           (not A)
           Q3
           R3
           (not S3)
           (= K #x00000001)
           (not (= K #x00000000))
           (= H1 G1)
           (= I1 #x00000000)
           (= L1 K1)
           (= N1 M1)
           (= K2 A3)
           (not (= K2 #x00000000))
           (= R1 Q1)
           (= J2 I2)
           (= T1 S1)
           (= V1 U1)
           (= X1 W1)
           (= Z1 Y1)
           (= B2 A2)
           (= D2 C2)
           (= F2 E2)
           (= H2 G2)
           (= P1 O1)
           (= N2 M2)
           (= P2 O2)
           (= R2 Q2)
           (= J1 I1)
           (= T2 S2)
           (= V2 U2)
           (= F1 E1)
           (= X2 W2)
           (= D1 C1)
           (= Z2 Y2)
           (= B1 A1)
           (= Z Y)
           (= X W)
           (= V U)
           (= T S)
           (= R Q)
           (= P O)
           (= N M)
           (= L K)
           (= J H)
           (= I G)
           (= F E)
           (= D C))
      (and (not P3)
           (not N3)
           (not B)
           (not O3)
           A
           (not Q3)
           R3
           S3
           (= H1 G1)
           (= L1 K1)
           (= N1 M1)
           (= R1 Q1)
           (= J2 #x00000001)
           (= T1 S1)
           (= V1 U1)
           (= Z1 Y1)
           (= A2 E)
           (= D2 C2)
           (not (= W1 E1))
           (= W1 A2)
           (= F2 E2)
           (= H2 G2)
           (= L2 K2)
           (= P1 O1)
           (= N2 M2)
           (= P2 O2)
           (= R2 Q2)
           (= J1 I1)
           (= T2 S2)
           (= V2 U2)
           (= F1 E1)
           (= X2 W2)
           (= D1 C1)
           (= Z2 Y2)
           (= B1 A1)
           (= Z Y)
           (= X W)
           (= V U)
           (= T S)
           (= R Q)
           (= P #x00000001)
           (= N M)
           (= L K)
           (= J (bvadd #x00000001 H))
           (= I G)
           (= F E)
           (= D C))
      (and P3
           (not N3)
           (not B)
           (not O3)
           A
           (not Q3)
           R3
           S3
           (= H1 G1)
           (= L1 K1)
           (= N1 M1)
           (= R1 Q1)
           (= J2 #x00000001)
           (= T1 S1)
           (= V1 U1)
           (= Z1 Y1)
           (= A2 E)
           (= D2 C2)
           (= W1 E1)
           (= W1 A2)
           (= F2 E2)
           (= H2 G2)
           (= L2 K2)
           (= P1 O1)
           (= N2 M2)
           (= P2 O2)
           (= R2 Q2)
           (= J1 I1)
           (= T2 S2)
           (= V2 U2)
           (= F1 E1)
           (= X2 W2)
           (= D1 C1)
           (= Z2 Y2)
           (= B1 A1)
           (= Z Y)
           (= X W)
           (= V U)
           (= T S)
           (= R Q)
           (= P #x00000001)
           (= N M)
           (= L K)
           (not (= J A1))
           (= J (bvadd #x00000001 H))
           (= I G)
           (= F E)
           (= D C))
      (and (not P3)
           (not N3)
           (not B)
           (not O3)
           (not A)
           (not Q3)
           R3
           S3
           (= H1 G1)
           (= L1 K1)
           (= N1 M1)
           (= R1 Q1)
           (= J2 #x00000001)
           (= T1 S1)
           (= V1 U1)
           (= Z1 Y1)
           (= A2 E)
           (= D2 C2)
           (= W1 E1)
           (= W1 A2)
           (= F2 E2)
           (= H2 G2)
           (= L2 K2)
           (= P1 O1)
           (= N2 M2)
           (= P2 O2)
           (= R2 Q2)
           (= J1 I1)
           (= T2 S2)
           (= V2 U2)
           (= F1 E1)
           (= X2 W2)
           (= D1 C1)
           (= Z2 Y2)
           (= B1 A1)
           (= Z Y)
           (= X W)
           (= V U)
           (= T S)
           (= R Q)
           (= P #x00000001)
           (= N M)
           (= L K)
           (= J A1)
           (= J (bvadd #x00000001 H))
           (= I G)
           (= F E)
           (= D C))
      (and P3
           (not N3)
           (not B)
           (not O3)
           (not A)
           (not Q3)
           (not R3)
           (not S3)
           (= O #x00000001)
           (= H1 G1)
           (= L1 K1)
           (= N1 M1)
           (= R1 Q1)
           (= J2 I2)
           (= T1 S1)
           (= V1 U1)
           (= X1 W1)
           (= Z1 Y1)
           (= B2 A2)
           (= D2 C2)
           (= F2 E2)
           (= H2 G2)
           (= L2 K2)
           (= P1 O1)
           (= N2 M2)
           (= P2 O2)
           (= R2 Q2)
           (= J1 #x00000002)
           (= T2 S2)
           (= V2 U2)
           (= F1 E1)
           (= X2 W2)
           (= D1 C1)
           (= Z2 Y2)
           (= B1 A1)
           (= Z Y)
           (= X W)
           (= V U)
           (= T S)
           (= R Q)
           (= P O)
           (= N M)
           (= L #x00000001)
           (= J H)
           (= I G)
           (= F E)
           (= D C))
      (and P3
           N3
           (not B)
           (not O3)
           (not A)
           (not Q3)
           (not R3)
           (not S3)
           (not (= O #x00000001))
           (= H1 G1)
           (= L1 K1)
           (= N1 M1)
           (= R1 Q1)
           (= J2 I2)
           (= T1 S1)
           (= V1 U1)
           (= X1 W1)
           (= Z1 Y1)
           (= B2 A2)
           (= D2 C2)
           (= F2 E2)
           (= H2 G2)
           (= L2 K2)
           (= P1 O1)
           (= N2 M2)
           (= P2 O2)
           (= R2 Q2)
           (= J1 I1)
           (= T2 S2)
           (= V2 U2)
           (= F1 E1)
           (= X2 W2)
           (= D1 C1)
           (= Z2 Y2)
           (= B1 A1)
           (= Z Y)
           (= X W)
           (= V U)
           (= T S)
           (= R Q)
           (= P O)
           (= N M)
           (= L K)
           (= J H)
           (= I G)
           (= F E)
           (= D C))
      (and (not P3)
           N3
           (not B)
           (not O3)
           (not A)
           (not Q3)
           (not R3)
           S3
           (= H1 G1)
           (= L1 K1)
           (= N1 M1)
           (= R1 Q1)
           (= J2 I2)
           (= T1 S1)
           (= V1 U1)
           (= X1 W1)
           (= Z1 Y1)
           (= B2 A2)
           (= D2 C2)
           (= F2 E2)
           (= H2 G2)
           (= L2 K2)
           (= P1 O1)
           (= N2 M2)
           (= P2 O2)
           (= R2 Q2)
           (= J1 I1)
           (= T2 S2)
           (= V2 U2)
           (= F1 E1)
           (= X2 W2)
           (= D1 C1)
           (= Z2 Y2)
           (= B1 A1)
           (= Z Y)
           (= X W)
           (= V U)
           (= T S)
           (= R Q)
           (= P O)
           (= N M)
           (= L K)
           (= J H)
           (= I G)
           (= F E)
           (= D C))
      (and (not P3)
           N3
           B
           (not O3)
           (not A)
           (not Q3)
           R3
           (not S3)
           (= H1 G1)
           (= L1 K1)
           (= N1 M1)
           (= R1 Q1)
           (= J2 I2)
           (= T1 S1)
           (= V1 U1)
           (= X1 W1)
           (= Z1 Y1)
           (= B2 A2)
           (= D2 C2)
           (= F2 E2)
           (= H2 G2)
           (= L2 K2)
           (= P1 O1)
           (= N2 M2)
           (= P2 O2)
           (= R2 Q2)
           (= J1 I1)
           (= T2 S2)
           (= V2 U2)
           (= F1 E1)
           (= X2 W2)
           (= D1 C1)
           (= Z2 Y2)
           (= B1 A1)
           (= Z Y)
           (= X W)
           (= V U)
           (= T S)
           (= R Q)
           (= P O)
           (= N M)
           (= L K)
           (= J H)
           (= I G)
           (= F E)
           (= D C))
      (and P3
           N3
           (not B)
           (not O3)
           A
           Q3
           (not R3)
           S3
           (= H1 G1)
           (= L1 K1)
           (= N1 M1)
           (= R1 Q1)
           (= J2 I2)
           (= T1 S1)
           (= V1 U1)
           (= X1 W1)
           (= Z1 Y1)
           (= B2 A2)
           (= D2 C2)
           (= F2 E2)
           (= H2 G2)
           (= L2 K2)
           (= P1 O1)
           (= N2 M2)
           (= P2 O2)
           (= R2 Q2)
           (= J1 I1)
           (= T2 S2)
           (= V2 U2)
           (= F1 E1)
           (= X2 W2)
           (= D1 C1)
           (= Z2 Y2)
           (= B1 A1)
           (= Z Y)
           (= X W)
           (= V U)
           (= T S)
           (= R Q)
           (= P O)
           (= N M)
           (= L K)
           (= J H)
           (= I G)
           (= F E)
           (= D C))
      (and P3
           N3
           (not B)
           (not O3)
           A
           Q3
           (not R3)
           (not S3)
           (= H1 G1)
           (= L1 K1)
           (= N1 M1)
           (= R1 Q1)
           (= J2 I2)
           (= T1 S1)
           (= V1 U1)
           (= X1 W1)
           (= Z1 Y1)
           (= B2 A2)
           (= D2 C2)
           (= F2 E2)
           (= H2 G2)
           (= L2 K2)
           (= P1 O1)
           (= N2 M2)
           (= P2 O2)
           (= R2 Q2)
           (= J1 I1)
           (= T2 S2)
           (= V2 U2)
           (= F1 E1)
           (= X2 W2)
           (= D1 C1)
           (= Z2 Y2)
           (= B1 A1)
           (= Z Y)
           (= X W)
           (= V U)
           (= T S)
           (= R Q)
           (= P O)
           (= N M)
           (= L K)
           (= J H)
           (= I G)
           (= F E)
           (= D C))
      (and P3 N3 (not B) (not O3) A Q3 R3 S3)
      (and P3
           (not N3)
           B
           O3
           (not A)
           (not Q3)
           (not R3)
           (not S3)
           a!7
           (= H1 G1)
           (= L1 K1)
           (= N1 M1)
           (= R1 Q1)
           (= T1 S1)
           (= V1 U1)
           (= X1 W1)
           (= Z1 Y1)
           (= B2 A2)
           (= D2 C2)
           (= F2 E2)
           (= H2 G2)
           (= L2 K2)
           (= N2 M2)
           (= P2 O2)
           (= R2 Q2)
           (= T2 S2)
           (= V2 U2)
           (= X2 W2)
           (= Z2 Y2))
      (and P3
           (not N3)
           B
           O3
           (not A)
           (not Q3)
           R3
           (not S3)
           a!23
           (= Y2 #x00000000)
           (= L1 K1)
           (= G2 Y2)
           (= X1 W1)
           (= B2 A2)
           (= L2 K2)
           (= M1 G2)
           (= F1 E1)
           (= X2 W2)
           (= B1 A1)
           (= Z Y)
           (= X W)
           (= V U)
           (= T S)
           (= R Q)
           (= P O)
           (= L K)
           (= J H)
           (= I G)
           (= F E)
           (= D C))
      (and (not P3)
           (not N3)
           B
           O3
           A
           (not Q3)
           R3
           (not S3)
           a!24
           (= H1 G1)
           (= N1 M1)
           (= J2 I2)
           (= V1 U1)
           (= X1 W1)
           (= B2 A2)
           (= D2 C2)
           (= F2 E2)
           (= H2 G2)
           (= L2 K2)
           (= P1 O1)
           (= N2 M2)
           (= P2 O2)
           (= R2 Q2)
           (= J1 I1)
           (= T2 S2)
           (= V2 U2)
           (= F1 E1)
           (= X2 W2)
           (= D1 C1)
           (= Z2 Y2)
           (= B1 A1)
           (= Z Y)
           (= X W)
           (= V U)
           (= T S)
           (= R Q)
           (= P O)
           (= N M)
           (= L K)
           (= J H)
           (= I G)
           (= F E)
           (= D C))
      (and (not P3)
           N3
           B
           O3
           A
           (not Q3)
           R3
           (not S3)
           a!8
           (= H1 G1)
           (= L1 K1)
           (= N1 M1)
           (not (= O1 #x00000000))
           (= J2 I2)
           (= V1 U1)
           (= X1 W1)
           (= B2 A2)
           (= D2 C2)
           (= F2 E2)
           (= H2 G2)
           (= S1 Y1)
           (not (= S1 #x00000000))
           (= Q1 Y1)
           (= L2 K2)
           (= P1 O1)
           (= N2 M2)
           (= P2 O2)
           (= R2 Q2)
           (= J1 I1)
           (= T2 S2)
           (= V2 U2)
           (= F1 E1)
           (= X2 W2)
           (= D1 C1)
           (= Z2 Y2)
           (= B1 A1)
           (= Z Y)
           (= X W)
           (= V U)
           (= T S)
           (= R Q)
           (= P O)
           (= N M)
           (= L K)
           (= J H)
           (= I G)
           (= F E)
           (= D C))
      (and P3
           (not N3)
           B
           O3
           A
           (not Q3)
           R3
           (not S3)
           a!8
           (= H1 G1)
           (= N1 M1)
           (= O1 #x00000000)
           (= J2 I2)
           (= V1 U1)
           (= X1 W1)
           (= B2 A2)
           (= D2 C2)
           (= F2 E2)
           (= H2 G2)
           (= S1 Y1)
           (not (= S1 #x00000000))
           (= Q1 Y1)
           (= L2 K2)
           (= P1 O1)
           (= N2 M2)
           (= P2 O2)
           (= K1 F3)
           (= K1 #x00000000)
           (= R2 Q2)
           (= J1 I1)
           (= T2 S2)
           (= V2 U2)
           (= F1 E1)
           (= X2 W2)
           (= D1 C1)
           (= Z2 Y2)
           (= B1 A1)
           (= Z Y)
           (= X W)
           (= V U)
           (= T S)
           (= R Q)
           (= P O)
           (= N M)
           (= L K)
           (= J H)
           (= I G)
           (= F E)
           (= D C))
      (and (not P3)
           N3
           (not B)
           O3
           A
           (not Q3)
           R3
           (not S3)
           a!8
           (= G #x00000001)
           (not (= G #x00000000))
           (= H1 G1)
           (= N1 M1)
           (= O1 #x00000000)
           (= J2 I2)
           (= V1 U1)
           (= X1 W1)
           (= B2 A2)
           (= D2 C2)
           (= F2 E2)
           (= H2 G2)
           (= S1 Y1)
           (not (= S1 #x00000000))
           (= Q1 Y1)
           (= L2 K2)
           (= P1 O1)
           (= N2 M2)
           (= P2 O2)
           (= K1 E3)
           (not (= K1 #x00000000))
           (= R2 Q2)
           (= J1 I1)
           (= T2 S2)
           (= V2 U2)
           (= F1 E1)
           (= X2 W2)
           (= D1 C1)
           (= Z2 Y2)
           (= B1 A1)
           (= Z Y)
           (= X W)
           (= V U)
           (= T S)
           (= R Q)
           (= P O)
           (= N M)
           (= L K)
           (= J H)
           (= I G)
           (= F E)
           (= D C)))))))))))))))))))
      )
      (state B
       P3
       N3
       A
       G1
       K1
       M1
       Q1
       S1
       U1
       W1
       Y1
       A2
       C2
       E2
       G2
       K2
       M2
       O2
       Q2
       S2
       U2
       W2
       Y2
       J2
       P1
       J1
       F1
       D1
       B1
       Z
       X
       V
       T
       R
       P
       N
       L
       J
       I
       F
       D)
    )
  )
)
(assert
  (forall ( (A (_ BitVec 32)) (B (_ BitVec 32)) (C (_ BitVec 32)) (D (_ BitVec 32)) (E (_ BitVec 32)) (F (_ BitVec 32)) (G (_ BitVec 32)) (H (_ BitVec 32)) (I (_ BitVec 32)) (J (_ BitVec 32)) (K (_ BitVec 32)) (L (_ BitVec 32)) (M (_ BitVec 32)) (N (_ BitVec 32)) (O (_ BitVec 32)) (P (_ BitVec 32)) (Q (_ BitVec 32)) (R (_ BitVec 32)) (S (_ BitVec 32)) (T (_ BitVec 32)) (U (_ BitVec 32)) (V (_ BitVec 32)) (W (_ BitVec 32)) (X (_ BitVec 32)) (Y (_ BitVec 32)) (Z (_ BitVec 32)) (A1 (_ BitVec 32)) (B1 (_ BitVec 32)) (C1 (_ BitVec 32)) (D1 (_ BitVec 32)) (E1 (_ BitVec 32)) (F1 (_ BitVec 32)) (G1 (_ BitVec 32)) (H1 (_ BitVec 32)) (I1 (_ BitVec 32)) (J1 (_ BitVec 32)) (K1 (_ BitVec 32)) (L1 (_ BitVec 32)) (M1 Bool) (N1 Bool) (O1 Bool) (P1 Bool) ) 
    (=>
      (and
        (state M1
       P1
       O1
       N1
       P
       R
       S
       U
       V
       W
       X
       Y
       Z
       A1
       B1
       C1
       E1
       F1
       G1
       H1
       I1
       J1
       K1
       L1
       D1
       T
       Q
       O
       N
       M
       L
       K
       J
       I
       H
       G
       F
       E
       D
       C
       B
       A)
        (and (= O1 true) (= N1 true) (not M1) (= P1 true))
      )
      false
    )
  )
)

(check-sat)
(exit)
